* LP written by GAMS Convert at 12/16/23 01:03:06
*
* Equation counts
*     Total        E        G        L        N        X        C        B
*        52       27        9       16        0        0        0        0
*
* Variable counts
*                  x        b        i      s1s      s2s       sc       si
*     Total     cont   binary  integer     sos1     sos2    scont     sint
*       101      101        0        0        0        0        0        0
* FX      0
*
* Nonzero counts
*     Total    const       NL
*       645      645        0

NAME          Convert
*
* original model was maximizing
*
ROWS
 N  obj
 L  e1
 L  e2
 L  e3
 E  e4
 E  e5
 G  e6
 G  e7
 G  e8
 G  e9
 G  e10
 G  e11
 G  e12
 G  e13
 G  e14
 E  e15
 E  e16
 E  e17
 E  e18
 E  e19
 E  e20
 E  e21
 E  e22
 E  e23
 E  e24
 L  e25
 L  e26
 L  e27
 L  e28
 L  e29
 L  e30
 L  e31
 L  e32
 L  e33
 L  e34
 L  e35
 L  e36
 E  e37
 E  e38
 E  e39
 E  e40
 E  e41
 E  e42
 E  e43
 E  e44
 E  e45
 E  e46
 E  e47
 E  e48
 E  e49
 E  e50
 L  e51
 E  e52
COLUMNS
    x1        e6               0.848
    x1        e15             -0.848
    x1        e25               4.79
    x1        e26              10.89
    x1        e27               18.7
    x1        e28               9.83
    x1        e29               8.03
    x1        e30              20.95
    x1        e31              15.67
    x1        e32              15.48
    x1        e33              11.35
    x1        e34               8.38
    x1        e35               8.23
    x1        e36               4.54
    x1        e49               -122
    x2        e6               0.569
    x2        e15             -0.569
    x2        e25               4.79
    x2        e26              10.89
    x2        e27               18.7
    x2        e28               9.83
    x2        e29               8.03
    x2        e30              20.95
    x2        e31              15.67
    x2        e32              15.48
    x2        e33              11.35
    x2        e34               8.38
    x2        e35               8.23
    x2        e36               4.54
    x2        e49               -122
    x3        e1                   1
    x3        e7               0.221
    x3        e16             -0.221
    x3        e25               8.24
    x3        e26               0.89
    x3        e27               5.43
    x3        e28               3.31
    x3        e29              11.13
    x3        e30              10.33
    x3        e31               3.27
    x3        e32               2.65
    x3        e33               5.47
    x3        e34               3.67
    x3        e35               3.18
    x3        e36               1.44
    x3        e49                -45
    x4        e2                   1
    x4        e7               0.174
    x4        e16             -0.174
    x4        e25               8.24
    x4        e26               0.89
    x4        e27               5.43
    x4        e28               3.31
    x4        e29              11.13
    x4        e30              10.33
    x4        e31               3.27
    x4        e32               2.65
    x4        e33               5.47
    x4        e34               3.67
    x4        e35               3.18
    x4        e36               1.44
    x4        e49                -45
    x5        e1                   1
    x5        e8               0.045
    x5        e17             -0.045
    x5        e25               5.78
    x5        e26               3.37
    x5        e27               4.03
    x5        e28               7.09
    x5        e29               4.64
    x5        e30               5.91
    x5        e31               7.67
    x5        e32               9.23
    x5        e33               5.93
    x5        e34               9.05
    x5        e35               7.59
    x5        e36               6.37
    x5        e49                -36
    x6        e2                   1
    x6        e8                0.03
    x6        e17              -0.03
    x6        e25               5.78
    x6        e26               3.37
    x6        e27               4.03
    x6        e28               7.09
    x6        e29               4.64
    x6        e30               5.91
    x6        e31               7.67
    x6        e32               9.23
    x6        e33               5.93
    x6        e34               9.05
    x6        e35               7.59
    x6        e36               6.37
    x6        e49                -36
    x7        e1                   1
    x7        e11              0.092
    x7        e20             -0.092
    x7        e25                  2
    x7        e26               2.36
    x7        e27               4.13
    x7        e28               2.13
    x7        e29               7.18
    x7        e30               5.88
    x7        e31               3.21
    x7        e32                9.2
    x7        e33               6.89
    x7        e34                3.3
    x7        e35                9.7
    x7        e36               8.87
    x7        e49               -291
    x8        e1                   1
    x8        e12              4.456
    x8        e21             -4.456
    x8        e25               5.71
    x8        e26                7.6
    x8        e27               7.28
    x8        e28               8.15
    x8        e29               8.48
    x8        e30              10.71
    x8        e31               9.34
    x8        e32              12.76
    x8        e33               8.93
    x8        e34              10.22
    x8        e35               6.18
    x8        e36               8.34
    x8        e49                -20
    x9        e2                   1
    x9        e12              3.964
    x9        e21             -3.964
    x9        e25               5.71
    x9        e26                7.6
    x9        e27               7.28
    x9        e28               8.15
    x9        e29               8.48
    x9        e30              10.71
    x9        e31               9.34
    x9        e32              12.76
    x9        e33               8.93
    x9        e34              10.22
    x9        e35               6.18
    x9        e36               8.34
    x9        e49                -20
    x10       e1                   1
    x10       e13              0.725
    x10       e22             -0.725
    x10       e25               9.19
    x10       e26              14.42
    x10       e27              10.59
    x10       e28              12.01
    x10       e29               3.47
    x10       e30              10.75
    x10       e31               5.88
    x10       e32                7.3
    x10       e33               4.14
    x10       e34               4.25
    x10       e35               3.49
    x10       e36               2.11
    x10       e49                -97
    x11       e2                   1
    x11       e13              0.563
    x11       e22             -0.563
    x11       e25               9.19
    x11       e26              14.42
    x11       e27              10.59
    x11       e28              12.01
    x11       e29               3.47
    x11       e30              10.75
    x11       e31               5.88
    x11       e32                7.3
    x11       e33               4.14
    x11       e34               4.25
    x11       e35               3.49
    x11       e36               2.11
    x11       e49                -97
    x12       e1                   1
    x12       e14              2.244
    x12       e23             -2.244
    x12       e25               1.22
    x12       e26               1.11
    x12       e27               0.56
    x12       e28               0.78
    x12       e29               1.19
    x12       e30               0.44
    x12       e31               1.89
    x12       e32               3.04
    x12       e33               2.93
    x12       e34               4.99
    x12       e35               7.73
    x12       e36               9.44
    x13       e2                   1
    x13       e14              1.666
    x13       e23             -1.666
    x13       e25               1.22
    x13       e26               1.11
    x13       e27               0.56
    x13       e28               0.78
    x13       e29               1.19
    x13       e30               0.44
    x13       e31               1.89
    x13       e32               3.04
    x13       e33               2.93
    x13       e34               4.99
    x13       e35               7.73
    x13       e36               9.44
    x14       e1                   1
    x14       e10              0.251
    x14       e13              0.373
    x14       e19             -0.251
    x14       e22             -0.373
    x14       e25              12.46
    x14       e26              11.35
    x14       e27              24.38
    x14       e28              22.03
    x14       e29              16.91
    x14       e30               9.47
    x14       e31              10.97
    x14       e32                9.7
    x14       e33               4.93
    x14       e34               6.41
    x14       e35               0.53
    x14       e36               0.89
    x15       e2                   1
    x15       e10              0.211
    x15       e13              0.264
    x15       e19             -0.211
    x15       e22             -0.264
    x15       e25              12.46
    x15       e26              11.35
    x15       e27              24.38
    x15       e28              22.03
    x15       e29              16.91
    x15       e30               9.47
    x15       e31              10.97
    x15       e32                9.7
    x15       e33               4.93
    x15       e34               6.41
    x15       e35               0.53
    x15       e36               0.89
    x16       e6               0.269
    x16       e9               0.285
    x16       e13              0.536
    x16       e15             -0.269
    x16       e18             -0.285
    x16       e22             -0.536
    x16       e25               5.54
    x16       e26               10.3
    x16       e27               9.24
    x16       e28               8.97
    x16       e29              15.82
    x16       e30                 13
    x16       e31              14.74
    x16       e32              10.64
    x16       e33               5.64
    x16       e34                4.9
    x16       e35               4.73
    x16       e36               4.92
    x16       e49                -45
    x17       e6               0.149
    x17       e9               0.221
    x17       e13              0.544
    x17       e15             -0.149
    x17       e18             -0.221
    x17       e22             -0.544
    x17       e25               5.54
    x17       e26               10.3
    x17       e27               9.24
    x17       e28               8.97
    x17       e29              15.82
    x17       e30                 13
    x17       e31              14.74
    x17       e32              10.64
    x17       e33               5.64
    x17       e34                4.9
    x17       e35               4.73
    x17       e36               4.92
    x17       e49                -45
    x18       e6               0.403
    x18       e10              0.115
    x18       e13              0.361
    x18       e15             -0.403
    x18       e19             -0.115
    x18       e22             -0.361
    x18       e25               9.18
    x18       e26               3.94
    x18       e27              16.15
    x18       e28              23.69
    x18       e29              28.12
    x18       e30              20.58
    x18       e31              17.73
    x18       e32              15.06
    x18       e33               4.58
    x18       e34               9.76
    x18       e35               7.39
    x18       e36               2.67
    x18       e49                -27
    x19       e6               0.133
    x19       e10              0.352
    x19       e13              0.212
    x19       e15             -0.133
    x19       e19             -0.352
    x19       e22             -0.212
    x19       e25               9.18
    x19       e26               3.94
    x19       e27              16.15
    x19       e28              23.69
    x19       e29              28.12
    x19       e30              20.58
    x19       e31              17.73
    x19       e32              15.06
    x19       e33               4.58
    x19       e34               9.76
    x19       e35               7.39
    x19       e36               2.67
    x19       e49                -27
    x20       e1                   1
    x20       e9               0.274
    x20       e13              0.594
    x20       e18             -0.274
    x20       e22             -0.594
    x20       e25               6.87
    x20       e26              10.19
    x20       e27              10.61
    x20       e28               9.14
    x20       e29              18.38
    x20       e30               11.5
    x20       e31               9.22
    x20       e32              13.36
    x20       e33               3.85
    x20       e34               3.87
    x20       e35               2.65
    x20       e36               1.09
    x20       e49                -53
    x21       e2                   1
    x21       e9                0.26
    x21       e13              0.442
    x21       e18              -0.26
    x21       e22             -0.442
    x21       e25               6.87
    x21       e26              10.19
    x21       e27              10.61
    x21       e28               9.14
    x21       e29              18.38
    x21       e30               11.5
    x21       e31               9.22
    x21       e32              13.36
    x21       e33               3.85
    x21       e34               3.87
    x21       e35               2.65
    x21       e36               1.09
    x21       e49                -53
    x22       e1                   1
    x22       e9               0.288
    x22       e12              3.408
    x22       e13              0.503
    x22       e18             -0.288
    x22       e21             -3.408
    x22       e22             -0.503
    x22       e25               7.44
    x22       e26              10.21
    x22       e27               9.63
    x22       e28              16.18
    x22       e29              20.11
    x22       e30              16.86
    x22       e31              14.86
    x22       e32                 14
    x22       e33               8.04
    x22       e34               6.69
    x22       e35               5.49
    x22       e36               5.26
    x22       e49               -105
    x23       e2                   1
    x23       e9               0.287
    x23       e12              1.031
    x23       e13              0.328
    x23       e18             -0.287
    x23       e21             -1.031
    x23       e22             -0.328
    x23       e25               7.44
    x23       e26              10.21
    x23       e27               9.63
    x23       e28              16.18
    x23       e29              20.11
    x23       e30              16.86
    x23       e31              14.86
    x23       e32                 14
    x23       e33               8.04
    x23       e34               6.69
    x23       e35               5.49
    x23       e36               5.26
    x23       e49               -105
    x24       e2               1.407
    x24       e3               0.209
    x24       e4                  -1
    x24       e5              -5.141
    x24       e25              4.261
    x24       e26              2.854
    x24       e27               0.04
    x24       e28               0.04
    x24       e29               0.04
    x24       e30               0.04
    x24       e31               0.04
    x24       e32               0.04
    x24       e33               0.04
    x24       e34               0.04
    x24       e35              7.075
    x24       e36              7.075
    x25       e2               0.611
    x25       e3                2.03
    x25       e4                  -1
    x25       e5             -21.646
    x25       e25              1.873
    x25       e26              1.262
    x25       e27               0.04
    x25       e28               0.04
    x25       e29               0.04
    x25       e30               0.04
    x25       e31               0.04
    x25       e32               0.04
    x25       e33               0.04
    x25       e34               0.04
    x25       e35              3.095
    x25       e36              3.095
    x26       e2               0.631
    x26       e3                 0.9
    x26       e4                  -1
    x26       e5             -49.845
    x26       e25              1.933
    x26       e26              1.302
    x26       e27               0.04
    x26       e28               0.04
    x26       e29               0.04
    x26       e30               0.04
    x26       e31               0.04
    x26       e32               0.04
    x26       e33               0.04
    x26       e34               0.04
    x26       e35              3.195
    x26       e36              3.195
    x27       e4                   1
    x27       e48               -211
    x27       e52                 -1
    x28       e1                   1
    x28       e2                  -1
    x29       e2                   1
    x29       e3                  -1
    x30       e15                  1
    x31       e16                  1
    x32       e17                  1
    x33       e18                  1
    x34       e19                  1
    x35       e20                  1
    x36       e21                  1
    x37       e22                  1
    x38       e23                  1
    x39       e9              -0.225
    x39       e12             -0.965
    x39       e13             -0.235
    x39       e24                  1
    x39       e47               -934
    x40       e9              -0.152
    x40       e12              -2.64
    x40       e13             -0.232
    x40       e24                  1
    x40       e47               -934
    x41       e9               -0.15
    x41       e12             -0.935
    x41       e13             -0.581
    x41       e24                  1
    x41       e47               -934
    x42       e6                  -1
    x42       e48              -1900
    x43       e7                  -1
    x43       e37       -602.0603229
    x43       e38       350.57349193
    x43       e39       893.26677995
    x43       e40        556.6057774
    x43       e41        241.7162277
    x43       e42       -161.8521665
    x43       e43       -854.8215803
    x43       e44       -422.0475786
    x43       e45       -165.5692438
    x43       e46       164.18861512
    x43       e48              -4000
    x44       e8                  -1
    x44       e37       -4703.499844
    x44       e38       -487.0703084
    x44       e39       -505.2445737
    x44       e40       5528.6114861
    x44       e41       6164.7107696
    x44       e42       2566.2062519
    x44       e43       -7756.776405
    x44       e44       -414.3732475
    x44       e45        -450.721778
    x44       e46       58.157648769
    x44       e48             -35000
    x45       e9                  -1
    x45       e48              -2500
    x46       e10                 -1
    x46       e37       -215.8984008
    x46       e38       -124.1768579
    x46       e39       1065.8513641
    x46       e40       31.044214487
    x46       e41       -394.6378175
    x46       e42       -39.51081844
    x46       e43       -77.14016933
    x46       e44       -281.7497648
    x46       e45       -279.3979304
    x46       e46       315.61618062
    x46       e48              -1500
    x47       e11                 -1
    x47       e48             -10000
    x48       e12                 -1
    x48       e37       -62.21271944
    x48       e38       -1.322744518
    x48       e39       120.56652305
    x48       e40       9.1717574433
    x48       e41       -44.72188284
    x48       e42       -19.14153431
    x48       e43       -21.65584207
    x48       e44       16.058774355
    x48       e45       0.5356568709
    x48       e46       2.7220114462
    x48       e48               -170
    x49       e13                 -1
    x49       e37       -34.38221709
    x49       e38       13.683602771
    x49       e39       85.565819861
    x49       e40       -7.534642032
    x49       e41       -11.43187067
    x49       e42       1.9919168591
    x49       e43       -15.76212471
    x49       e44       -10.56581986
    x49       e45       -22.69053118
    x49       e46       1.1258660508
    x49       e48               -150
    x50       e14                 -1
    x50       e48              -1000
    x51       e25                 -1
    x51       e50                 -3
    x52       e26                 -1
    x52       e50                 -3
    x53       e27                 -1
    x53       e50                 -3
    x54       e28                 -1
    x54       e50                 -3
    x55       e29                 -1
    x55       e50                 -3
    x56       e30                 -1
    x56       e50                 -3
    x57       e31                 -1
    x57       e50                 -3
    x58       e32                 -1
    x58       e50                 -3
    x59       e33                 -1
    x59       e50                 -3
    x60       e34                 -1
    x60       e50                 -3
    x61       e35                 -1
    x61       e50                 -3
    x62       e36                 -1
    x62       e50                 -3
    x63       e25                 -1
    x63       e50                -10
    x63       e51                 10
    x64       e26                 -1
    x64       e50                -10
    x64       e51                 10
    x65       e27                 -1
    x65       e50                -10
    x65       e51                 10
    x66       e28                 -1
    x66       e50                -10
    x66       e51                 10
    x67       e29                 -1
    x67       e50                -10
    x67       e51                 10
    x68       e30                 -1
    x68       e50                -10
    x68       e51                 10
    x69       e31                 -1
    x69       e50                -10
    x69       e51                 10
    x70       e32                 -1
    x70       e50                -10
    x70       e51                 10
    x71       e33                 -1
    x71       e50                -10
    x71       e51                 10
    x72       e34                 -1
    x72       e50                -10
    x72       e51                 10
    x73       e35                 -1
    x73       e50                -10
    x73       e51                 10
    x74       e36                 -1
    x74       e50                -10
    x74       e51                 10
    x75       e25                -25
    x75       e26                -25
    x75       e27                -25
    x75       e28                -25
    x75       e29                -25
    x75       e30                -25
    x75       e31                -25
    x75       e32                -25
    x75       e33                -25
    x75       e34                -25
    x75       e35                -25
    x75       e36                -25
    x75       e50              -2054
    x75       e51               2054
    x76       e5                   1
    x76       e47                  1
    x76       e51                  1
    x77       e37                 -1
    x78       e38                 -1
    x79       e39                 -1
    x80       e40                 -1
    x81       e41                 -1
    x82       e42                 -1
    x83       e43                 -1
    x84       e44                 -1
    x85       e45                 -1
    x86       e46                 -1
    x87       e37                  1
    x88       e38                  1
    x89       e39                  1
    x90       e40                  1
    x91       e41                  1
    x92       e42                  1
    x93       e43                  1
    x94       e44                  1
    x95       e45                  1
    x96       e46                  1
    x97       obj                 -1
    x97       e47                  1
    x98       e47                 -1
    x98       e48                  1
    x99       e47                  1
    x99       e49                  1
    x99       e51                  1
    x100      e47                  1
    x100      e50                  1
    x101      e47                  1
    x101      e51                  1
    x101      e52                  1
RHS
    rhs       e1               8.775
    rhs       e2               11.64
    rhs       e3               21.92
    rhs       e24                  1
    rhs       e51             7123.2
BOUNDS
 UP bnd       x12              0.036
 UP bnd       x13              0.298
 FR bnd       x27
 FR bnd       x30
 FR bnd       x31
 FR bnd       x32
 FR bnd       x33
 FR bnd       x34
 FR bnd       x35
 FR bnd       x36
 FR bnd       x37
 FR bnd       x38
 UP bnd       x51               70.5
 UP bnd       x52               70.5
 UP bnd       x53               70.5
 UP bnd       x54               70.5
 UP bnd       x55               70.5
 UP bnd       x56               70.5
 UP bnd       x57               70.5
 UP bnd       x58               70.5
 UP bnd       x59               70.5
 UP bnd       x60               70.5
 UP bnd       x61               70.5
 UP bnd       x62               70.5
 FR bnd       x76
 FR bnd       x97
 FR bnd       x98
 FR bnd       x99
 FR bnd       x100
 FR bnd       x101
ENDATA
